n_machines = 3;
n_resources = 5;
n_jobs = 27;
horizon = 1358;
LB = 452;
n_jobs_per_resource = [7, 6, 6, 4, 4];
duration = [75, 26, 35, 67, 40, 32, 73, 52, 11, 36, 88, 26, 20, 67, 6, 93, 59, 34, 29, 64, 24, 92, 80, 87, 64, 1, 77]